data/solutions/recovery/wellformed/moderate/flexible/wellformed_moderate_instance64/37.sol
Elapsed time: 100.08
Upper bound: 4862.0
Planning weighted value: 131711.0
C[0]=4862.0
C[1]=4861.0
C[2]=4861.0
C[3]=4860.0
C[4]=0.0
y[0]=2
y[1]=2
y[2]=1
y[3]=0
y[4]=2
y[5]=2
y[6]=2
y[7]=1
y[8]=2
y[9]=3
y[10]=2
y[11]=0
y[12]=2
y[13]=2
y[14]=1
y[15]=0
y[16]=1
y[17]=3
y[18]=3
y[19]=3
y[20]=3
y[21]=0
y[22]=1
y[23]=3
y[24]=1
y[25]=3
y[26]=3
y[27]=2
y[28]=2
y[29]=1
y[30]=0
y[31]=0
y[32]=3
y[33]=2
y[34]=2
y[35]=3
y[36]=3
y[37]=1
y[38]=1
y[39]=0
y[40]=0
