data/solutions/recovery/wellformed/moderate/flexible/wellformed_moderate_instance64/37.log

Log started (V12.6.3.0) Fri Apr 20 20:20:09 2018

New value for default parallel thread count: 1

Problem '/tmp/tmpcNHZYB.pyomo.lp' read.
Read time = 0.00 sec. (0.09 ticks)

Problem name         : /tmp/tmpcNHZYB.pyomo.lp
Objective sense      : Minimize
Variables            :     212  [Nneg: 1,  Binary: 205,  General Integer: 6]
Objective nonzeros   :       1
Linear constraints   :      94  [Less: 46,  Equal: 48]
  Nonzeros           :    5859
  RHS nonzeros       :      83

Variables            : Min LB: 0.000000         Max UB: 1.000000       
Objective nonzeros   : Min   : 1.000000         Max   : 1.000000       
Linear constraints   :
  Nonzeros           : Min   : 1.000000         Max   : 1963.000       
  RHS nonzeros       : Min   : 1.000000         Max   : 5.000000       
Tried aggregator 2 times.
MIP Presolve eliminated 44 rows and 55 columns.
Aggregator did 8 substitutions.
Reduced MIP has 42 rows, 149 columns, and 387 nonzeros.
Reduced MIP has 148 binaries, 1 generals, 0 SOSs, and 0 indicators.
Presolve time = 0.00 sec. (1.44 ticks)
Found incumbent of value 19444.000000 after 0.00 sec. (1.75 ticks)
Probing time = 0.00 sec. (0.12 ticks)
Cover probing fixed 0 vars, tightened 6 bounds.
Tried aggregator 1 time.
Reduced MIP has 42 rows, 149 columns, and 387 nonzeros.
Reduced MIP has 148 binaries, 1 generals, 0 SOSs, and 0 indicators.
Presolve time = 0.00 sec. (0.27 ticks)
Probing time = 0.00 sec. (0.08 ticks)
Clique table members: 37.
MIP emphasis: balance optimality and feasibility.
MIP search method: dynamic search.
Parallel mode: none, using 1 thread.
Root relaxation solution time = 0.00 sec. (0.11 ticks)

        Nodes                                         Cuts/
   Node  Left     Objective  IInf  Best Integer    Best Bound    ItCnt     Gap

*     0+    0                        19444.0000     1963.0000            89.90%
      0     0     4861.0000     5    19444.0000     4861.0000        5   75.00%
*     0+    0                         5644.0000     4861.0000            13.87%
      0     0     4861.0000     6     5644.0000      Fract: 3       13   13.87%
*     0+    0                         5311.0000     4861.0000             8.47%
      0     0     4861.0000     7     5311.0000       Cuts: 7       20    8.47%
*     0+    0                         4970.0000     4861.0000             2.19%
      0     2     4861.0000     7     4970.0000     4861.0000       20    2.19%
Elapsed time = 0.01 sec. (6.00 ticks, tree = 0.01 MB, solutions = 4)
*    60+   50                         4927.0000     4861.0000             1.34%
*   123   103      integral     0     4914.0000     4861.0000      284    1.08%
*   223+  156                         4881.0000     4861.0000             0.41%
*  1410   768      integral     0     4871.0000     4861.0000     2797    0.21%
*  1623+  561                         4868.0000     4861.0000             0.14%
*  1823+  445                         4864.0000     4861.0000             0.06%
*  2023+  429                         4863.0000     4861.0000             0.04%
   2123   454     4861.0000     7     4863.0000     4861.0000     4127    0.04%
   2124   455     4861.0000     7     4863.0000     4861.0000     4128    0.04%
   2125   454     4861.3333     4     4863.0000     4861.0000     4130    0.04%
   2126   455     4862.0000     3     4863.0000     4861.0000     4131    0.04%
   2127   456     4862.0000     4     4863.0000     4861.0000     4139    0.04%
   2128   456     4862.0000     4     4863.0000     4861.0000     4142    0.04%
   2129   454    infeasible           4863.0000     4861.0000     4147    0.04%
   2130   454     4862.0000     3     4863.0000     4861.0000     4151    0.04%
   2131   452    infeasible           4863.0000     4861.0000     4152    0.04%
*  2323+  514                         4862.0000     4861.0000             0.02%
   9502  4763     4861.0000     6     4862.0000     4861.0000    18609    0.02%
Elapsed time = 1.23 sec. (959.74 ticks, tree = 1.40 MB, solutions = 12)
  25585 13567     4861.0000     8     4862.0000     4861.0000    51246    0.02%
  25586 13566    infeasible           4862.0000     4861.0000    51249    0.02%
  25587 13567     4861.0000     6     4862.0000     4861.0000    51251    0.02%
  25588 13566    infeasible           4862.0000     4861.0000    51256    0.02%
  25589 13567     4861.0000     8     4862.0000     4861.0000    51258    0.02%
  25590 13568     4861.0000     8     4862.0000     4861.0000    51261    0.02%
  25591 13569     4861.0000     6     4862.0000     4861.0000    51262    0.02%
  25592 13570     4861.0000     8     4862.0000     4861.0000    51264    0.02%
  25593 13569    infeasible           4862.0000     4861.0000    51266    0.02%
  25594 13568    infeasible           4862.0000     4861.0000    51266    0.02%
Elapsed time = 2.48 sec. (1913.69 ticks, tree = 3.84 MB, solutions = 12)
  43177 20895     4861.0000     8     4862.0000     4861.0000    89781    0.02%
  43178 20896     4861.0000     7     4862.0000     4861.0000    89782    0.02%
  43179 20897     4861.0000     8     4862.0000     4861.0000    89783    0.02%
  43180 20896    infeasible           4862.0000     4861.0000    89785    0.02%
  43181 20897     4861.0000     8     4862.0000     4861.0000    89786    0.02%
  43182 20898     4861.0000     8     4862.0000     4861.0000    89787    0.02%
  43183 20897    infeasible           4862.0000     4861.0000    89789    0.02%
  43184 20896    infeasible           4862.0000     4861.0000    89793    0.02%
  43185 20895    infeasible           4862.0000     4861.0000    89796    0.02%
  43186 20894    infeasible           4862.0000     4861.0000    89800    0.02%
Elapsed time = 3.67 sec. (2867.85 ticks, tree = 6.16 MB, solutions = 12)
  59753 25740     4861.0000     8     4862.0000     4861.0000   126854    0.02%
  59754 25741     4861.0000     7     4862.0000     4861.0000   126855    0.02%
  59755 25742     4861.0000     8     4862.0000     4861.0000   126856    0.02%
  59756 25743     4861.0000     8     4862.0000     4861.0000   126857    0.02%
  59757 25744     4861.0000     8     4862.0000     4861.0000   126858    0.02%
  59758 25745     4861.0000     8     4862.0000     4861.0000   126859    0.02%
  59759 25744    infeasible           4862.0000     4861.0000   126864    0.02%
  59760 25745     4861.0000     8     4862.0000     4861.0000   126865    0.02%
  59761 25746     4861.0000     8     4862.0000     4861.0000   126866    0.02%
  59762 25747     4861.0000     8     4862.0000     4861.0000   126867    0.02%
Elapsed time = 4.89 sec. (3821.82 ticks, tree = 7.39 MB, solutions = 12)
  75774 29734     4861.0000     7     4862.0000     4861.0000   163811    0.02%
  75775 29735     4861.0000     7     4862.0000     4861.0000   163812    0.02%
  75776 29736     4861.0000     8     4862.0000     4861.0000   163813    0.02%
  75777 29737     4861.0000     8     4862.0000     4861.0000   163814    0.02%
  75778 29738     4861.0000     8     4862.0000     4861.0000   163815    0.02%
  75779 29739     4861.0000     8     4862.0000     4861.0000   163816    0.02%
  75780 29740     4861.0000     8     4862.0000     4861.0000   163817    0.02%
  75781 29741     4861.0000     8     4862.0000     4861.0000   163818    0.02%
  75782 29742     4861.0000     8     4862.0000     4861.0000   163819    0.02%
  75783 29743     4861.0000     8     4862.0000     4861.0000   163820    0.02%
Elapsed time = 6.10 sec. (4775.84 ticks, tree = 8.42 MB, solutions = 12)
  90469 31299     4861.0000     6     4862.0000     4861.0000   195398    0.02%
  90470 31300     4861.0000     6     4862.0000     4861.0000   195399    0.02%
  90471 31301     4861.0000     6     4862.0000     4861.0000   195401    0.02%
  90472 31302     4861.0000     6     4862.0000     4861.0000   195403    0.02%
  90473 31303     4861.0000     6     4862.0000     4861.0000   195405    0.02%
  90474 31304     4861.0000     6     4862.0000     4861.0000   195406    0.02%
  90475 31305     4861.0000     6     4862.0000     4861.0000   195407    0.02%
  90476 31306     4861.0000     6     4862.0000     4861.0000   195408    0.02%
  90477 31307     4861.0000     6     4862.0000     4861.0000   195409    0.02%
  90478 31308     4861.0000     6     4862.0000     4861.0000   195410    0.02%
Elapsed time = 7.31 sec. (5729.87 ticks, tree = 8.84 MB, solutions = 12)
 106032 32502     4861.0000     6     4862.0000     4861.0000   226956    0.02%
 106033 32503     4861.0000     5     4862.0000     4861.0000   226958    0.02%
 106034 32504     4861.0000     6     4862.0000     4861.0000   226959    0.02%
 106035 32505     4861.0000     8     4862.0000     4861.0000   226962    0.02%
 106036 32504    infeasible           4862.0000     4861.0000   226965    0.02%
 106037 32505     4861.0000     8     4862.0000     4861.0000   226966    0.02%
 106038 32506     4861.0000     6     4862.0000     4861.0000   226967    0.02%
 106039 32505    infeasible           4862.0000     4861.0000   226969    0.02%
 106040 32506     4861.0000     8     4862.0000     4861.0000   226971    0.02%
 106041 32507     4861.0000     6     4862.0000     4861.0000   226972    0.02%
Elapsed time = 8.54 sec. (6684.29 ticks, tree = 9.16 MB, solutions = 12)
 122130 35972    infeasible           4862.0000     4861.0000   262481    0.02%
 122131 35973     4861.0000     6     4862.0000     4861.0000   262482    0.02%
 122132 35974     4861.0000     5     4862.0000     4861.0000   262484    0.02%
 122133 35973    infeasible           4862.0000     4861.0000   262488    0.02%
 122134 35972    infeasible           4862.0000     4861.0000   262490    0.02%
 122135 35973     4861.0000     6     4862.0000     4861.0000   262491    0.02%
 122136 35974     4861.0000     6     4862.0000     4861.0000   262492    0.02%
 122137 35975     4861.0000     6     4862.0000     4861.0000   262493    0.02%
 122138 35976     4861.0000     6     4862.0000     4861.0000   262494    0.02%
 122139 35977     4861.0000     6     4862.0000     4861.0000   262495    0.02%
Elapsed time = 9.82 sec. (7639.03 ticks, tree = 11.00 MB, solutions = 12)
 137125 38323    infeasible           4862.0000     4861.0000   297508    0.02%
 137126 38324     4861.0000     8     4862.0000     4861.0000   297511    0.02%
 137127 38323    infeasible           4862.0000     4861.0000   297513    0.02%
 137128 38324     4861.0000     6     4862.0000     4861.0000   297514    0.02%
 137129 38323    infeasible           4862.0000     4861.0000   297520    0.02%
 137130 38322    infeasible           4862.0000     4861.0000   297523    0.02%
 137131 38321    infeasible           4862.0000     4861.0000   297523    0.02%
 137132 38322     4861.0000     8     4862.0000     4861.0000   297528    0.02%
 137133 38323     4861.0000     8     4862.0000     4861.0000   297529    0.02%
 137134 38324     4861.0000     8     4862.0000     4861.0000   297530    0.02%
Elapsed time = 11.08 sec. (8593.19 ticks, tree = 11.61 MB, solutions = 12)
 152650 42095     4861.0000     7     4862.0000     4861.0000   333558    0.02%
 152651 42096     4861.0000     7     4862.0000     4861.0000   333559    0.02%
 152652 42097     4861.0000     8     4862.0000     4861.0000   333561    0.02%
 152653 42098     4861.0000     8     4862.0000     4861.0000   333563    0.02%
 152654 42099     4861.0000     8     4862.0000     4861.0000   333564    0.02%
 152655 42100     4861.0000     8     4862.0000     4861.0000   333565    0.02%
 152656 42101     4861.0000     8     4862.0000     4861.0000   333566    0.02%
 152657 42102     4861.0000     8     4862.0000     4861.0000   333567    0.02%
 152658 42103     4861.0000     8     4862.0000     4861.0000   333569    0.02%
 200330 51133     4861.0000     5     4862.0000     4861.0000   442035    0.02%
Elapsed time = 15.92 sec. (12407.90 ticks, tree = 14.92 MB, solutions = 12)
 258206 55035     4861.0000     6     4862.0000     4861.0000   563537    0.02%
 258207 55034    infeasible           4862.0000     4861.0000   563539    0.02%
 258208 55033    infeasible           4862.0000     4861.0000   563543    0.02%
 258209 55032    infeasible           4862.0000     4861.0000   563543    0.02%
 258210 55031    infeasible           4862.0000     4861.0000   563547    0.02%
 258211 55030    infeasible           4862.0000     4861.0000   563551    0.02%
 258212 55029    infeasible           4862.0000     4861.0000   563551    0.02%
 258213 55030     4861.0000     6     4862.0000     4861.0000   563555    0.02%
 258214 55031     4861.0000     6     4862.0000     4861.0000   563556    0.02%
 258215 55030    infeasible           4862.0000     4861.0000   563558    0.02%
Elapsed time = 20.81 sec. (16223.29 ticks, tree = 15.95 MB, solutions = 12)
 314166 59213    infeasible           4862.0000     4861.0000   683192    0.02%
 314167 59212    infeasible           4862.0000     4861.0000   683194    0.02%
 314168 59211    infeasible           4862.0000     4861.0000   683196    0.02%
 314169 59210    infeasible           4862.0000     4861.0000   683196    0.02%
 314170 59209    infeasible           4862.0000     4861.0000   683198    0.02%
 314171 59208    infeasible           4862.0000     4861.0000   683200    0.02%
 314172 59207    infeasible           4862.0000     4861.0000   683202    0.02%
 314173 59208     4861.0000     6     4862.0000     4861.0000   683203    0.02%
 314174 59207    infeasible           4862.0000     4861.0000   683208    0.02%
 314175 59206    infeasible           4862.0000     4861.0000   683211    0.02%
Elapsed time = 25.64 sec. (20038.93 ticks, tree = 17.06 MB, solutions = 12)
 369087 63573     4861.0000     6     4862.0000     4861.0000   801950    0.02%
 369088 63574     4861.0000     5     4862.0000     4861.0000   801951    0.02%
 369089 63575     4861.0000     6     4862.0000     4861.0000   801952    0.02%
 369090 63574    infeasible           4862.0000     4861.0000   801952    0.02%
 369091 63573    infeasible           4862.0000     4861.0000   801957    0.02%
 369092 63572    infeasible           4862.0000     4861.0000   801957    0.02%
 369093 63573     4861.0000     6     4862.0000     4861.0000   801960    0.02%
 369094 63574     4861.0000     6     4862.0000     4861.0000   801962    0.02%
 369095 63575     4861.0000     6     4862.0000     4861.0000   801963    0.02%
 369096 63576     4861.0000     6     4862.0000     4861.0000   801965    0.02%
Elapsed time = 30.41 sec. (23854.15 ticks, tree = 18.22 MB, solutions = 12)
 428311 71044     4861.0000     6     4862.0000     4861.0000   934132    0.02%
 428312 71045     4861.0000     6     4862.0000     4861.0000   934133    0.02%
 428313 71044    infeasible           4862.0000     4861.0000   934133    0.02%
 428314 71045     4861.0000     6     4862.0000     4861.0000   934135    0.02%
 428315 71046     4861.0000     6     4862.0000     4861.0000   934136    0.02%
 428316 71045    infeasible           4862.0000     4861.0000   934136    0.02%
 428317 71046     4861.0000     8     4862.0000     4861.0000   934139    0.02%
 428318 71047     4861.0000     6     4862.0000     4861.0000   934140    0.02%
 428319 71048     4861.0000     8     4862.0000     4861.0000   934142    0.02%
 428320 71049     4861.0000     6     4862.0000     4861.0000   934144    0.02%
Elapsed time = 35.24 sec. (27669.20 ticks, tree = 22.07 MB, solutions = 12)
 490393 85138     4861.0000     8     4862.0000     4861.0000  1079614    0.02%
 490394 85139     4861.0000     7     4862.0000     4861.0000  1079615    0.02%
 490395 85138    infeasible           4862.0000     4861.0000  1079617    0.02%
 490396 85139     4861.0000     5     4862.0000     4861.0000  1079618    0.02%
 490397 85138    infeasible           4862.0000     4861.0000  1079622    0.02%
 490398 85139     4861.0000     6     4862.0000     4861.0000  1079624    0.02%
 490399 85140     4861.0000     6     4862.0000     4861.0000  1079625    0.02%
 490400 85141     4861.0000     6     4862.0000     4861.0000  1079626    0.02%
 490401 85142     4861.0000     6     4862.0000     4861.0000  1079627    0.02%
 490402 85143     4861.0000     6     4862.0000     4861.0000  1079628    0.02%
Elapsed time = 40.07 sec. (31484.31 ticks, tree = 25.75 MB, solutions = 12)
 547408 90530    infeasible           4862.0000     4861.0000  1210960    0.02%
 547409 90529    infeasible           4862.0000     4861.0000  1210960    0.02%
 547410 90528    infeasible           4862.0000     4861.0000  1210962    0.02%
 547411 90527    infeasible           4862.0000     4861.0000  1210963    0.02%
 547412 90528     4861.0000     6     4862.0000     4861.0000  1210965    0.02%
 547413 90529     4861.0000     8     4862.0000     4861.0000  1210968    0.02%
 547414 90530     4861.0000     6     4862.0000     4861.0000  1210970    0.02%
 547415 90531     4861.0000     6     4862.0000     4861.0000  1210971    0.02%
 547416 90532     4861.0000     6     4862.0000     4861.0000  1210972    0.02%
 547417 90533     4861.0000     5     4862.0000     4861.0000  1210975    0.02%
Elapsed time = 44.91 sec. (35299.71 ticks, tree = 27.19 MB, solutions = 12)
 605123 96120     4861.0000     6     4862.0000     4861.0000  1338638    0.02%
 605124 96121     4861.0000     6     4862.0000     4861.0000  1338639    0.02%
 605125 96120    infeasible           4862.0000     4861.0000  1338641    0.02%
 605126 96121     4861.0000     6     4862.0000     4861.0000  1338642    0.02%
 605127 96120    infeasible           4862.0000     4861.0000  1338648    0.02%
 605128 96119    infeasible           4862.0000     4861.0000  1338650    0.02%
 605129 96118    infeasible           4862.0000     4861.0000  1338650    0.02%
 605130 96117    infeasible           4862.0000     4861.0000  1338652    0.02%
 605131 96118     4861.0000     6     4862.0000     4861.0000  1338653    0.02%
 605132 96119     4861.0000     6     4862.0000     4861.0000  1338654    0.02%
Elapsed time = 49.78 sec. (39128.08 ticks, tree = 28.68 MB, solutions = 12)
 662286 100353    infeasible           4862.0000     4861.0000  1461578    0.02%
 662287 100354     4861.0000     6     4862.0000     4861.0000  1461579    0.02%
 662288 100355     4861.0000     6     4862.0000     4861.0000  1461580    0.02%
 662289 100354    infeasible           4862.0000     4861.0000  1461583    0.02%
 662290 100355     4861.0000     6     4862.0000     4861.0000  1461584    0.02%
 662291 100354    infeasible           4862.0000     4861.0000  1461584    0.02%
 662292 100355     4861.0000     6     4862.0000     4861.0000  1461585    0.02%
 662293 100354    infeasible           4862.0000     4861.0000  1461585    0.02%
 662294 100355     4861.0000     6     4862.0000     4861.0000  1461586    0.02%
 662295 100354    infeasible           4862.0000     4861.0000  1461589    0.02%
Elapsed time = 54.48 sec. (42943.11 ticks, tree = 29.79 MB, solutions = 12)
 718624 104634     4861.0000     8     4862.0000     4861.0000  1585698    0.02%
 718625 104633    infeasible           4862.0000     4861.0000  1585703    0.02%
 718626 104634     4861.0000     6     4862.0000     4861.0000  1585705    0.02%
 718627 104633    infeasible           4862.0000     4861.0000  1585710    0.02%
 718628 104632    infeasible           4862.0000     4861.0000  1585716    0.02%
 718629 104633     4861.0000     7     4862.0000     4861.0000  1585720    0.02%
 718630 104634     4861.0000     7     4862.0000     4861.0000  1585721    0.02%
 718631 104635     4861.0000     7     4862.0000     4861.0000  1585722    0.02%
 718632 104636     4861.0000     3     4862.0000     4861.0000  1585729    0.02%
 718633 104635    infeasible           4862.0000     4861.0000  1585732    0.02%
Elapsed time = 59.29 sec. (46758.60 ticks, tree = 30.94 MB, solutions = 12)
 775868 109595    infeasible           4862.0000     4861.0000  1719594    0.02%
 775869 109594    infeasible           4862.0000     4861.0000  1719598    0.02%
 775870 109593    infeasible           4862.0000     4861.0000  1719603    0.02%
 775871 109594     4861.0000     6     4862.0000     4861.0000  1719606    0.02%
 775872 109595     4861.0000     6     4862.0000     4861.0000  1719608    0.02%
 775873 109596     4861.0000     6     4862.0000     4861.0000  1719609    0.02%
 775874 109597     4861.0000     6     4862.0000     4861.0000  1719610    0.02%
 775875 109596    infeasible           4862.0000     4861.0000  1719610    0.02%
 775876 109595    infeasible           4862.0000     4861.0000  1719612    0.02%
 775877 109594    infeasible           4862.0000     4861.0000  1719615    0.02%
Elapsed time = 64.10 sec. (50574.24 ticks, tree = 32.34 MB, solutions = 12)
 833848 113552    infeasible           4862.0000     4861.0000  1850578    0.02%
 833849 113551    infeasible           4862.0000     4861.0000  1850578    0.02%
 833850 113550    infeasible           4862.0000     4861.0000  1850585    0.02%
 833851 113549    infeasible           4862.0000     4861.0000  1850590    0.02%
 833852 113550     4861.0000     6     4862.0000     4861.0000  1850591    0.02%
 833853 113551     4861.0000     6     4862.0000     4861.0000  1850593    0.02%
 833854 113552     4861.0000     6     4862.0000     4861.0000  1850595    0.02%
 833855 113553     4861.0000     6     4862.0000     4861.0000  1850596    0.02%
 833856 113554     4861.0000     6     4862.0000     4861.0000  1850597    0.02%
 833857 113553    infeasible           4862.0000     4861.0000  1850600    0.02%
Elapsed time = 68.91 sec. (54389.56 ticks, tree = 33.44 MB, solutions = 12)
 892353 117915     4861.0000     3     4862.0000     4861.0000  1986656    0.02%
 892354 117916     4861.0000     3     4862.0000     4861.0000  1986659    0.02%
 892355 117917     4861.0000     4     4862.0000     4861.0000  1986664    0.02%
 892356 117918     4861.0000     7     4862.0000     4861.0000  1986675    0.02%
 892357 117917    infeasible           4862.0000     4861.0000  1986678    0.02%
 892358 117916    infeasible           4862.0000     4861.0000  1986681    0.02%
 892359 117915    infeasible           4862.0000     4861.0000  1986684    0.02%
 892360 117914    infeasible           4862.0000     4861.0000  1986689    0.02%
 892361 117913    infeasible           4862.0000     4861.0000  1986696    0.02%
 892362 117912    infeasible           4862.0000     4861.0000  1986701    0.02%
Elapsed time = 73.72 sec. (58204.94 ticks, tree = 34.70 MB, solutions = 12)
 951491 122270     4861.0000     6     4862.0000     4861.0000  2124783    0.02%
 951492 122271     4861.0000     6     4862.0000     4861.0000  2124784    0.02%
 951493 122272     4861.0000     6     4862.0000     4861.0000  2124785    0.02%
 951494 122273     4861.0000     6     4862.0000     4861.0000  2124787    0.02%
 951495 122274     4861.0000     6     4862.0000     4861.0000  2124789    0.02%
 951496 122275     4861.0000     6     4862.0000     4861.0000  2124790    0.02%
 951497 122276     4861.0000     8     4862.0000     4861.0000  2124793    0.02%
 951498 122277     4861.0000     6     4862.0000     4861.0000  2124795    0.02%
 951499 122278     4861.0000     6     4862.0000     4861.0000  2124797    0.02%
 951500 122279     4861.0000     6     4862.0000     4861.0000  2124799    0.02%
Elapsed time = 78.49 sec. (62020.01 ticks, tree = 35.93 MB, solutions = 12)
 1008223 127049    infeasible           4862.0000     4861.0000  2254588    0.02%
 1008224 127048    infeasible           4862.0000     4861.0000  2254593    0.02%
 1008225 127047    infeasible           4862.0000     4861.0000  2254598    0.02%
 1008226 127046    infeasible           4862.0000     4861.0000  2254599    0.02%
 1008227 127045    infeasible           4862.0000     4861.0000  2254600    0.02%
 1008228 127046     4861.0000     6     4862.0000     4861.0000  2254604    0.02%
 1008229 127047     4861.0000     6     4862.0000     4861.0000  2254605    0.02%
 1008230 127048     4861.0000     6     4862.0000     4861.0000  2254606    0.02%
 1008231 127047    infeasible           4862.0000     4861.0000  2254606    0.02%
 1008232 127048     4861.0000     6     4862.0000     4861.0000  2254607    0.02%
Elapsed time = 83.27 sec. (65835.48 ticks, tree = 37.25 MB, solutions = 12)
 1065275 130756    infeasible           4862.0000     4861.0000  2382036    0.02%
 1065276 130755    infeasible           4862.0000     4861.0000  2382038    0.02%
 1065277 130754    infeasible           4862.0000     4861.0000  2382042    0.02%
 1065278 130753    infeasible           4862.0000     4861.0000  2382047    0.02%
 1065279 130752    infeasible           4862.0000     4861.0000  2382051    0.02%
 1065280 130753     4861.0000     5     4862.0000     4861.0000  2382052    0.02%
 1065281 130752    infeasible           4862.0000     4861.0000  2382055    0.02%
 1065282 130753     4861.0000     5     4862.0000     4861.0000  2382056    0.02%
 1065283 130752    infeasible           4862.0000     4861.0000  2382062    0.02%
 1065284 130753     4861.0000     6     4862.0000     4861.0000  2382066    0.02%
Elapsed time = 88.05 sec. (69651.49 ticks, tree = 38.25 MB, solutions = 12)
 1112823 134920     4861.0000     6     4862.0000     4861.0000  2496630    0.02%
 1112824 134921     4861.0000     6     4862.0000     4861.0000  2496631    0.02%
 1112825 134922     4861.0000     6     4862.0000     4861.0000  2496633    0.02%
 1112826 134923     4861.0000     8     4862.0000     4861.0000  2496637    0.02%
 1112827 134924     4861.0000     8     4862.0000     4861.0000  2496640    0.02%
 1112828 134925     4861.0000     8     4862.0000     4861.0000  2496642    0.02%
 1112829 134924    infeasible           4862.0000     4861.0000  2496645    0.02%
 1112830 134925     4861.0000     8     4862.0000     4861.0000  2496646    0.02%
 1112831 134924    infeasible           4862.0000     4861.0000  2496650    0.02%
 1112832 134923    infeasible           4862.0000     4861.0000  2496653    0.02%
Elapsed time = 92.79 sec. (73483.52 ticks, tree = 41.04 MB, solutions = 12)
 1172540 142470     4861.0000     6     4862.0000     4861.0000  2639380    0.02%
 1172541 142471     4861.0000     8     4862.0000     4861.0000  2639382    0.02%
 1172542 142472     4861.0000     6     4862.0000     4861.0000  2639384    0.02%
 1172543 142473     4861.0000     8     4862.0000     4861.0000  2639387    0.02%
 1172544 142472    infeasible           4862.0000     4861.0000  2639389    0.02%
 1172545 142473     4861.0000     6     4862.0000     4861.0000  2639390    0.02%
 1172546 142472    infeasible           4862.0000     4861.0000  2639394    0.02%
 1172547 142471    infeasible           4862.0000     4861.0000  2639396    0.02%
 1172548 142470    infeasible           4862.0000     4861.0000  2639400    0.02%
 1172549 142469    infeasible           4862.0000     4861.0000  2639405    0.02%
Elapsed time = 97.61 sec. (77298.62 ticks, tree = 43.00 MB, solutions = 12)

Root node processing (before b&c):
  Real time             =    0.01 sec. (6.02 ticks)
Sequential b&c:
  Real time             =   99.99 sec. (79355.48 ticks)
                          ------------
Total (root+branch&cut) =  100.00 sec. (79361.49 ticks)

Solution pool: 12 solutions saved.

MIP - Time limit exceeded, integer feasible:  Objective =  4.8620000000e+03
Current MIP best bound =  4.8610000000e+03 (gap = 1, 0.02%)
Solution time =  100.00 sec.  Iterations = 2707890  Nodes = 1200823 (144733)
Deterministic time = 79361.50 ticks  (793.61 ticks/sec)


Incumbent solution written to file '/tmp/tmpXYk69z.cplex.sol'.
